presolving:
   (0.1s) running MILP presolver
   (0.1s) MILP presolver found nothing
(round 1, exhaustive) 0 del vars, 0 del conss, 0 add conss, 0 chg bounds, 0 chg sides, 40 chg coeffs, 5104 upgd conss, 0 impls, 5064 clqs
(round 2, medium)     0 del vars, 4840 del conss, 4800 add conss, 0 chg bounds, 0 chg sides, 40 chg coeffs, 5104 upgd conss, 0 impls, 5064 clqs
   (3.5s) probing: 1000/4840 (20.7%) - 0 fixings, 0 aggregations, 838419 implications, 0 bound changes
   (3.5s) probing: 1001/4840 (20.7%) - 0 fixings, 0 aggregations, 839256 implications, 0 bound changes
   (3.5s) probing aborted: 1000/1000 successive useless probings
   (3.6s) symmetry computation started: requiring (bin +, int -, cont +), (fixed: bin -, int +, cont -)
   (3.6s) no symmetry present
presolving (3 rounds: 3 fast, 3 medium, 2 exhaustive):
 0 deleted vars, 4840 deleted constraints, 4800 added constraints, 0 tightened bounds, 0 added holes, 0 changed sides, 40 changed coefficients
 0 implications, 17248 cliques
presolved problem has 4840 variables (4840 bin, 0 int, 0 impl, 0 cont) and 5064 constraints
   5064 constraints of type <setppc>
transformed objective value is always integral (scale: 1)
Presolving Time: 3.58

 time | node  | left  |LP iter|LP it/n|mem/heur|mdpt |vars |cons |rows |cuts |sepa|confs|strbr|  dualbound   | primalbound  |  gap   | compl. 
p 3.7s|     1 |     0 |     0 |     - |  clique|   0 |4840 |5064 |5064 |   0 |  0 |   0 |   0 | 0.000000e+00 | 1.264460e+05 |    Inf | unknown
  4.4s|     1 |     0 |  1567 |     - |    67M |   0 |4840 |5071 |5064 |   0 |  0 |   7 |   0 | 9.557848e+04 | 1.264460e+05 |  32.30%| unknown
  6.8s|     1 |     0 |  2063 |     - |    73M |   0 |4840 |5071 |5069 |   5 |  1 |   7 |   0 | 9.604387e+04 | 1.264460e+05 |  31.65%| unknown
  9.2s|     1 |     0 |  2365 |     - |    77M |   0 |4840 |5071 |5075 |  11 |  2 |   7 |   0 | 9.620259e+04 | 1.264460e+05 |  31.44%| unknown
 11.0s|     1 |     0 |  2683 |     - |    81M |   0 |4840 |5071 |5084 |  20 |  3 |   7 |   0 | 9.630578e+04 | 1.264460e+05 |  31.30%| unknown
 11.9s|     1 |     0 |  2921 |     - |    81M |   0 |4840 |5072 |5090 |  26 |  4 |   8 |   0 | 9.636321e+04 | 1.264460e+05 |  31.22%| unknown
 12.5s|     1 |     0 |  3006 |     - |    82M |   0 |4840 |5072 |5091 |  27 |  5 |   8 |   0 | 9.638173e+04 | 1.264460e+05 |  31.19%| unknown
 13.0s|     1 |     0 |  3070 |     - |    83M |   0 |4840 |5072 |5096 |  32 |  6 |   8 |   0 | 9.639558e+04 | 1.264460e+05 |  31.17%| unknown
 13.6s|     1 |     0 |  3094 |     - |    83M |   0 |4840 |5072 |5097 |  33 |  7 |   8 |   0 | 9.640063e+04 | 1.264460e+05 |  31.17%| unknown
 14.3s|     1 |     0 |  3319 |     - |    84M |   0 |4840 |5073 |5110 |  46 |  8 |   9 |   0 | 9.645403e+04 | 1.264460e+05 |  31.09%| unknown
 15.0s|     1 |     0 |  3471 |     - |    84M |   0 |4840 |5074 |5112 |  48 |  9 |  10 |   0 | 9.649665e+04 | 1.264460e+05 |  31.04%| unknown
 15.6s|     1 |     0 |  3557 |     - |    85M |   0 |4840 |5075 |5116 |  52 | 10 |  11 |   0 | 9.650533e+04 | 1.264460e+05 |  31.02%| unknown
 15.8s|     1 |     0 |  3577 |     - |    85M |   0 |4840 |5075 |5117 |  53 | 11 |  11 |   0 | 9.650909e+04 | 1.264460e+05 |  31.02%| unknown
 16.0s|     1 |     0 |  3739 |     - |    86M |   0 |4840 |5076 |5121 |  57 | 12 |  12 |   0 | 9.655147e+04 | 1.264460e+05 |  30.96%| unknown
 16.2s|     1 |     0 |  3802 |     - |    87M |   0 |4840 |5076 |5123 |  59 | 13 |  12 |   0 | 9.656201e+04 | 1.264460e+05 |  30.95%| unknown
 time | node  | left  |LP iter|LP it/n|mem/heur|mdpt |vars |cons |rows |cuts |sepa|confs|strbr|  dualbound   | primalbound  |  gap   | compl. 
 16.4s|     1 |     0 |  3897 |     - |    87M |   0 |4840 |5076 |5124 |  60 | 14 |  12 |   0 | 9.657292e+04 | 1.264460e+05 |  30.93%| unknown
 16.7s|     1 |     0 |  3961 |     - |    88M |   0 |4840 |5076 |5125 |  61 | 15 |  12 |   0 | 9.657876e+04 | 1.264460e+05 |  30.93%| unknown
 16.9s|     1 |     0 |  3993 |     - |    88M |   0 |4840 |5076 |5126 |  62 | 16 |  12 |   0 | 9.658170e+04 | 1.264460e+05 |  30.92%| unknown
 17.1s|     1 |     0 |  4090 |     - |    89M |   0 |4840 |5076 |5126 |  64 | 17 |  12 |   0 | 9.659765e+04 | 1.264460e+05 |  30.90%| unknown
 17.4s|     1 |     0 |  4284 |     - |    89M |   0 |4840 |5076 |5129 |  67 | 18 |  12 |   0 | 9.662335e+04 | 1.264460e+05 |  30.86%| unknown
 17.5s|     1 |     0 |  4328 |     - |    89M |   0 |4840 |5076 |5130 |  68 | 19 |  12 |   0 | 9.662882e+04 | 1.264460e+05 |  30.86%| unknown
 17.8s|     1 |     0 |  4444 |     - |    90M |   0 |4840 |5076 |5131 |  69 | 20 |  12 |   0 | 9.664313e+04 | 1.264460e+05 |  30.84%| unknown
d19.9s|     1 |     0 |  8234 |     - |farkasdi|   0 |4840 |5076 |5131 |   0 | 22 |  12 |   0 | 9.664313e+04 | 1.065170e+05 |  10.22%| unknown
L24.7s|     1 |     0 | 17498 |     - |    rens|   0 |4840 |5076 |5131 |  69 | 22 |  12 |   0 | 9.664313e+04 | 1.049060e+05 |   8.55%| unknown
 24.8s|     1 |     0 | 17498 |     - |    91M |   0 |4840 |5076 |5131 |  69 | 22 |  12 |   0 | 9.664313e+04 | 1.049060e+05 |   8.55%| unknown
 24.9s|     1 |     0 | 17504 |     - |    91M |   0 |4840 |5076 |5132 |  70 | 23 |  12 |   0 | 9.664320e+04 | 1.049060e+05 |   8.55%| unknown
 34.3s|     1 |     2 | 17504 |     - |    91M |   0 |4840 |5076 |5132 |  70 | 24 |  12 |  22 | 9.697151e+04 | 1.049060e+05 |   8.18%| unknown
*41.8s|     5 |     4 | 19255 |3701.2 |strongbr|   4 |4840 |5076 |5110 |  70 |  1 |  12 |  84 | 9.697151e+04 | 1.007470e+05 |   3.89%| unknown
*41.9s|     5 |     4 | 19280 |3707.5 |    LP  |   4 |4840 |5076 |5110 |  70 |  3 |  12 |  87 | 9.697151e+04 | 1.006660e+05 |   3.81%| unknown

SCIP Status        : problem is solved [optimal solution found]
Solving Time (sec) : 82.16
Solving Nodes      : 43
Primal Bound       : +1.00666000000000e+05 (6 solutions)
Dual Bound         : +1.00666000000000e+05
Gap                : 0.00 %
Solve Status: optimal
Solve Time: 82.17 seconds
Objective Value: 100666.00
